Version identifier: 12.10.0.0 | 2019-11-26 | 843d4de
CPXPARAM_WorkMem                                 28672
Tried aggregator 2 times.
MIP Presolve modified 8 coefficients.
Aggregator did 20 substitutions.
Reduced MIP has 73 rows, 90 columns, and 351 nonzeros.
Reduced MIP has 90 binaries, 0 generals, 0 SOSs, and 0 indicators.
Presolve time = 0,00 sec. (0,37 ticks)
Found incumbent of value 60,000000 after 0,00 sec. (0,62 ticks)
Probing time = 0,00 sec. (0,11 ticks)
Tried aggregator 1 time.
Detecting symmetries...
MIP Presolve eliminated 12 rows and 0 columns.
MIP Presolve added 24 rows and 0 columns.
Reduced MIP has 85 rows, 90 columns, and 363 nonzeros.
Reduced MIP has 90 binaries, 0 generals, 0 SOSs, and 0 indicators.
Presolve time = 0,00 sec. (0,38 ticks)
Probing time = 0,00 sec. (0,11 ticks)
Clique table members: 241.
MIP emphasis: balance optimality and feasibility.
MIP search method: dynamic search.
Parallel mode: deterministic, using up to 16 threads.
Root relaxation solution time = 0,00 sec. (0,22 ticks)

        Nodes                                         Cuts/
   Node  Left     Objective  IInf  Best Integer    Best Bound    ItCnt     Gap

*     0+    0                           60,0000        0,0000           100,00%
*     0+    0                           44,0000        0,0000           100,00%
*     0+    0                           39,0000        0,0000           100,00%
      0     0       20,0000    26       39,0000       20,0000       35   48,72%
*     0+    0                           33,0000       20,0000            39,39%
      0     0       20,0000    26       33,0000      Cuts: 86       53   39,39%
      0     0       20,1884    26       33,0000     Cuts: 102       88   38,82%
      0     0       20,3365    26       33,0000     Cuts: 109      110   38,37%
      0     0       20,4647    26       33,0000      Cuts: 46      124   37,99%
      0     0       20,5666    26       33,0000      Cuts: 67      137   37,68%
Detecting symmetries...
      0     0       20,6211    26       33,0000      Cuts: 47      153   37,51%
      0     0       20,7017    26       33,0000      Cuts: 14      173   37,27%
      0     0       20,7532    26       33,0000      Cuts: 43      190   37,11%
      0     0       20,7574    26       33,0000      Cuts: 38      200   37,10%
      0     0        cutoff             33,0000       33,0000      200    0,00%
Elapsed time = 0,10 sec. (18,45 ticks, tree = 0,01 MB, solutions = 4)

Clique cuts applied:  9
Cover cuts applied:  14
Mixed integer rounding cuts applied:  2
Zero-half cuts applied:  5
Gomory fractional cuts applied:  4

Root node processing (before b&c):
  Real time             =    0,10 sec. (18,46 ticks)
Parallel b&c, 16 threads:
  Real time             =    0,00 sec. (0,00 ticks)
  Sync time (average)   =    0,00 sec.
  Wait time (average)   =    0,00 sec.
                          ------------
Total (root+branch&cut) =    0,10 sec. (18,46 ticks)
